p cnf 548 1283
a 457 190 463 354 360 363 367 370 377 380 384 388 493 394 398 401 408 411 415 418 423 515 428 431 524 324 529 338 535 442 446 449 7 13 24 30 2 1 40 18 6 12 35 23 29 50 45 60 55 70 65 80 75 85 90 95 105 100 110 115 120 130 125 135 140 145 181 176 158 150 154 171 163 167 189 185 205 200 195 209 218 213 222 226 235 230 240 245 255 250 260 265 274 270 279 287 283 291 296 301 306 311 315 319 323 329 333 337 343 347 0
d 440 2 535 0
d 438 333 337 343 2 529 0
d 352 181 189 205 209 457 0
d 356 7 13 226 24 0
d 353 463 218 222 2 0
d 393 493 279 287 2 0
d 372 7 13 24 30 0
d 437 319 323 329 2 524 0
d 426 2 515 311 7 315 0
d 3 2 0
d 4 1 2 0
d 5 1 2 0
d 8 7 0
d 9 6 7 0
d 10 6 7 0
d 11 1 2 6 7 0
d 14 13 0
d 15 12 13 0
d 16 12 13 0
d 17 1 2 6 7 12 13 0
d 19 6 12 0
d 20 18 6 12 0
d 21 18 6 12 0
d 22 1 2 6 7 12 13 18 0
d 25 24 0
d 26 23 24 0
d 27 23 24 0
d 28 1 2 6 7 12 13 18 23 24 0
d 31 30 0
d 32 29 30 0
d 33 29 30 0
d 34 1 2 6 7 12 13 18 23 24 29 30 0
d 36 23 29 0
d 37 35 23 29 0
d 38 35 23 29 0
d 39 1 2 6 7 12 13 18 23 24 29 30 35 0
d 41 18 35 0
d 42 40 18 35 0
d 43 40 18 35 0
d 44 1 2 6 7 12 13 18 23 24 29 30 35 40 0
d 46 7 12 0
d 47 45 7 12 0
d 48 45 7 12 0
d 49 1 2 6 7 12 13 18 23 24 29 30 35 40 45 0
d 51 45 35 0
d 52 50 45 35 0
d 53 50 45 35 0
d 54 1 2 6 7 12 13 18 23 24 29 30 35 40 45 50 0
d 56 6 13 0
d 57 55 6 13 0
d 58 55 6 13 0
d 59 1 2 6 7 12 13 18 23 24 29 30 35 40 45 50 55 0
d 61 55 35 0
d 62 60 55 35 0
d 63 60 55 35 0
d 64 1 2 6 7 12 13 18 23 24 29 30 35 40 45 50 55 60 0
d 66 7 13 0
d 67 65 7 13 0
d 68 65 7 13 0
d 69 1 2 6 7 12 13 18 23 24 29 30 35 40 45 50 55 60 65 0
d 71 65 35 0
d 72 70 65 35 0
d 73 70 65 35 0
d 74 1 2 6 7 12 13 18 23 24 29 30 35 40 45 50 55 60 65 70 0
d 76 24 29 0
d 77 75 24 29 0
d 78 75 24 29 0
d 79 1 2 6 7 12 13 18 23 24 29 30 35 40 45 50 55 60 65 70 75 0
d 81 18 75 0
d 82 80 18 75 0
d 83 80 18 75 0
d 84 1 2 6 7 12 13 18 23 24 29 30 35 40 45 50 55 60 65 70 75 80 0
d 86 45 75 0
d 87 85 45 75 0
d 88 85 45 75 0
d 89 1 2 6 7 12 13 18 23 24 29 30 35 40 45 50 55 60 65 70 75 80 85 0
d 91 55 75 0
d 92 90 55 75 0
d 93 90 55 75 0
d 94 1 2 6 7 12 13 18 23 24 29 30 35 40 45 50 55 60 65 70 75 80 85 90 0
d 96 65 75 0
d 97 95 65 75 0
d 98 95 65 75 0
d 99 1 2 6 7 12 13 18 23 24 29 30 35 40 45 50 55 60 65 70 75 80 85 90 95 0
d 101 23 30 0
d 102 100 23 30 0
d 103 100 23 30 0
d 104 1 2 6 7 12 13 18 23 24 29 30 35 40 45 50 55 60 65 70 75 80 85 90 95 100 0
d 106 18 100 0
d 107 105 18 100 0
d 108 105 18 100 0
d 109 1 2 6 7 12 13 18 23 24 29 30 35 40 45 50 55 60 65 70 75 80 85 90 95 100 105 0
d 111 45 100 0
d 112 110 45 100 0
d 113 110 45 100 0
d 114 1 2 6 7 12 13 18 23 24 29 30 35 40 45 50 55 60 65 70 75 80 85 90 95 100 105 110 0
d 116 55 100 0
d 117 115 55 100 0
d 118 115 55 100 0
d 119 1 2 6 7 12 13 18 23 24 29 30 35 40 45 50 55 60 65 70 75 80 85 90 95 100 105 110 115 0
d 121 65 100 0
d 122 120 65 100 0
d 123 120 65 100 0
d 124 1 2 6 7 12 13 18 23 24 29 30 35 40 45 50 55 60 65 70 75 80 85 90 95 100 105 110 115 120 0
d 126 24 30 0
d 127 125 24 30 0
d 128 125 24 30 0
d 129 1 2 6 7 12 13 18 23 24 29 30 35 40 45 50 55 60 65 70 75 80 85 90 95 100 105 110 115 120 125 0
d 131 18 125 0
d 132 130 18 125 0
d 133 130 18 125 0
d 134 1 2 6 7 12 13 18 23 24 29 30 35 40 45 50 55 60 65 70 75 80 85 90 95 100 105 110 115 120 125 130 0
d 136 45 125 0
d 137 135 45 125 0
d 138 135 45 125 0
d 139 1 2 6 7 12 13 18 23 24 29 30 35 40 45 50 55 60 65 70 75 80 85 90 95 100 105 110 115 120 125 130 135 0
d 141 55 125 0
d 142 140 55 125 0
d 143 140 55 125 0
d 144 1 2 6 7 12 13 18 23 24 29 30 35 40 45 50 55 60 65 70 75 80 85 90 95 100 105 110 115 120 125 130 135 140 0
d 146 65 125 0
d 147 145 65 125 0
d 148 145 65 125 0
d 149 1 2 6 7 12 13 18 23 24 29 30 35 40 45 50 55 60 65 70 75 80 85 90 95 100 105 110 115 120 125 130 135 140 145 0
d 151 150 7 0
d 152 150 7 0
d 153 1 2 6 7 12 13 18 23 24 29 30 35 40 45 50 55 60 65 70 75 80 85 90 95 100 105 110 115 120 125 130 135 140 145 150 0
d 155 154 13 0
d 156 154 13 0
d 157 1 2 6 7 12 13 18 23 24 29 30 35 40 45 50 55 60 65 70 75 80 85 90 95 100 105 110 115 120 125 130 135 140 145 150 154 0
d 159 150 154 0
d 160 158 150 154 0
d 161 158 150 154 0
d 162 1 2 6 7 12 13 18 23 24 29 30 35 40 45 50 55 60 65 70 75 80 85 90 95 100 105 110 115 120 125 130 135 140 145 150 154 158 0
d 164 163 24 0
d 165 163 24 0
d 166 1 2 6 7 12 13 18 23 24 29 30 35 40 45 50 55 60 65 70 75 80 85 90 95 100 105 110 115 120 125 130 135 140 145 150 154 158 163 0
d 168 167 30 0
d 169 167 30 0
d 170 1 2 6 7 12 13 18 23 24 29 30 35 40 45 50 55 60 65 70 75 80 85 90 95 100 105 110 115 120 125 130 135 140 145 150 154 158 163 167 0
d 172 163 167 0
d 173 171 163 167 0
d 174 171 163 167 0
d 175 1 2 6 7 12 13 18 23 24 29 30 35 40 45 50 55 60 65 70 75 80 85 90 95 100 105 110 115 120 125 130 135 140 145 150 154 158 163 167 171 0
d 177 158 171 0
d 178 176 158 171 0
d 179 176 158 171 0
d 180 1 2 6 7 12 13 18 23 24 29 30 35 40 45 50 55 60 65 70 75 80 85 90 95 100 105 110 115 120 125 130 135 140 145 150 154 158 163 167 171 176 0
d 182 181 176 0
d 183 181 176 0
d 184 1 2 6 7 12 13 18 23 24 29 30 35 40 45 50 55 60 65 70 75 80 85 90 95 100 105 110 115 120 125 130 135 140 145 150 154 158 163 167 171 176 181 0
d 186 185 2 0
d 187 185 2 0
d 188 1 2 6 7 12 13 18 23 24 29 30 35 40 45 50 55 60 65 70 75 80 85 90 95 100 105 110 115 120 125 130 135 140 145 150 154 158 163 167 171 176 181 185 0
d 191 185 190 0
d 192 189 185 190 0
d 193 189 185 190 0
d 194 1 2 6 7 12 13 18 23 24 29 30 35 40 45 50 55 60 65 70 75 80 85 90 95 100 105 110 115 120 125 130 135 140 145 150 154 158 163 167 171 176 181 185 189 190 0
d 196 7 154 0
d 197 195 7 154 0
d 198 195 7 154 0
d 199 1 2 6 7 12 13 18 23 24 29 30 35 40 45 50 55 60 65 70 75 80 85 90 95 100 105 110 115 120 125 130 135 140 145 150 154 158 163 167 171 176 181 185 189 190 195 0
d 201 195 171 0
d 202 200 195 171 0
d 203 200 195 171 0
d 204 1 2 6 7 12 13 18 23 24 29 30 35 40 45 50 55 60 65 70 75 80 85 90 95 100 105 110 115 120 125 130 135 140 145 150 154 158 163 167 171 176 181 185 189 190 195 200 0
d 206 205 200 0
d 207 205 200 0
d 208 1 2 6 7 12 13 18 23 24 29 30 35 40 45 50 55 60 65 70 75 80 85 90 95 100 105 110 115 120 125 130 135 140 145 150 154 158 163 167 171 176 181 185 189 190 195 200 205 0
d 210 209 185 0
d 211 209 185 0
d 212 1 2 6 7 12 13 18 23 24 29 30 35 40 45 50 55 60 65 70 75 80 85 90 95 100 105 110 115 120 125 130 135 140 145 150 154 158 163 167 171 176 181 185 189 190 195 200 205 209 0
d 214 150 13 0
d 215 213 150 13 0
d 216 213 150 13 0
d 217 1 2 6 7 12 13 18 23 24 29 30 35 40 45 50 55 60 65 70 75 80 85 90 95 100 105 110 115 120 125 130 135 140 145 150 154 158 163 167 171 176 181 185 189 190 195 200 205 209 213 0
d 219 218 213 0
d 220 218 213 0
d 221 1 2 6 7 12 13 18 23 24 29 30 35 40 45 50 55 60 65 70 75 80 85 90 95 100 105 110 115 120 125 130 135 140 145 150 154 158 163 167 171 176 181 185 189 190 195 200 205 209 213 218 0
d 223 222 171 0
d 224 222 171 0
d 225 1 2 6 7 12 13 18 23 24 29 30 35 40 45 50 55 60 65 70 75 80 85 90 95 100 105 110 115 120 125 130 135 140 145 150 154 158 163 167 171 176 181 185 189 190 195 200 205 209 213 218 222 0
d 227 226 167 0
d 228 226 167 0
d 229 1 2 6 7 12 13 18 23 24 29 30 35 40 45 50 55 60 65 70 75 80 85 90 95 100 105 110 115 120 125 130 135 140 145 150 154 158 163 167 171 176 181 185 189 190 195 200 205 209 213 218 222 226 0
d 231 24 167 0
d 232 230 24 167 0
d 233 230 24 167 0
d 234 1 2 6 7 12 13 18 23 24 29 30 35 40 45 50 55 60 65 70 75 80 85 90 95 100 105 110 115 120 125 130 135 140 145 150 154 158 163 167 171 176 181 185 189 190 195 200 205 209 213 218 222 226 230 0
d 236 158 230 0
d 237 235 158 230 0
d 238 235 158 230 0
d 239 1 2 6 7 12 13 18 23 24 29 30 35 40 45 50 55 60 65 70 75 80 85 90 95 100 105 110 115 120 125 130 135 140 145 150 154 158 163 167 171 176 181 185 189 190 195 200 205 209 213 218 222 226 230 235 0
d 241 195 230 0
d 242 240 195 230 0
d 243 240 195 230 0
d 244 1 2 6 7 12 13 18 23 24 29 30 35 40 45 50 55 60 65 70 75 80 85 90 95 100 105 110 115 120 125 130 135 140 145 150 154 158 163 167 171 176 181 185 189 190 195 200 205 209 213 218 222 226 230 235 240 0
d 246 213 230 0
d 247 245 213 230 0
d 248 245 213 230 0
d 249 1 2 6 7 12 13 18 23 24 29 30 35 40 45 50 55 60 65 70 75 80 85 90 95 100 105 110 115 120 125 130 135 140 145 150 154 158 163 167 171 176 181 185 189 190 195 200 205 209 213 218 222 226 230 235 240 245 0
d 251 163 30 0
d 252 250 163 30 0
d 253 250 163 30 0
d 254 1 2 6 7 12 13 18 23 24 29 30 35 40 45 50 55 60 65 70 75 80 85 90 95 100 105 110 115 120 125 130 135 140 145 150 154 158 163 167 171 176 181 185 189 190 195 200 205 209 213 218 222 226 230 235 240 245 250 0
d 256 158 250 0
d 257 255 158 250 0
d 258 255 158 250 0
d 259 1 2 6 7 12 13 18 23 24 29 30 35 40 45 50 55 60 65 70 75 80 85 90 95 100 105 110 115 120 125 130 135 140 145 150 154 158 163 167 171 176 181 185 189 190 195 200 205 209 213 218 222 226 230 235 240 245 250 255 0
d 261 195 250 0
d 262 260 195 250 0
d 263 260 195 250 0
d 264 1 2 6 7 12 13 18 23 24 29 30 35 40 45 50 55 60 65 70 75 80 85 90 95 100 105 110 115 120 125 130 135 140 145 150 154 158 163 167 171 176 181 185 189 190 195 200 205 209 213 218 222 226 230 235 240 245 250 255 260 0
d 266 213 250 0
d 267 265 213 250 0
d 268 265 213 250 0
d 269 1 2 6 7 12 13 18 23 24 29 30 35 40 45 50 55 60 65 70 75 80 85 90 95 100 105 110 115 120 125 130 135 140 145 150 154 158 163 167 171 176 181 185 189 190 195 200 205 209 213 218 222 226 230 235 240 245 250 255 260 265 0
d 271 270 7 13 0
d 272 270 7 13 0
d 273 1 2 6 7 12 13 18 23 24 29 30 35 40 45 50 55 60 65 70 75 80 85 90 95 100 105 110 115 120 125 130 135 140 145 150 154 158 163 167 171 176 181 185 189 190 195 200 205 209 213 218 222 226 230 235 240 245 250 255 260 265 270 0
d 275 270 250 0
d 276 274 270 250 0
d 277 274 270 250 0
d 278 1 2 6 7 12 13 18 23 24 29 30 35 40 45 50 55 60 65 70 75 80 85 90 95 100 105 110 115 120 125 130 135 140 145 150 154 158 163 167 171 176 181 185 189 190 195 200 205 209 213 218 222 226 230 235 240 245 250 255 260 265 270 274 0
d 280 279 158 0
d 281 279 158 0
d 282 1 2 6 7 12 13 18 23 24 29 30 35 40 45 50 55 60 65 70 75 80 85 90 95 100 105 110 115 120 125 130 135 140 145 150 154 158 163 167 171 176 181 185 189 190 195 200 205 209 213 218 222 226 230 235 240 245 250 255 260 265 270 274 279 0
d 284 283 24 30 0
d 285 283 24 30 0
d 286 1 2 6 7 12 13 18 23 24 29 30 35 40 45 50 55 60 65 70 75 80 85 90 95 100 105 110 115 120 125 130 135 140 145 150 154 158 163 167 171 176 181 185 189 190 195 200 205 209 213 218 222 226 230 235 240 245 250 255 260 265 270 274 279 283 0
d 288 287 283 0
d 289 287 283 0
d 290 1 2 6 7 12 13 18 23 24 29 30 35 40 45 50 55 60 65 70 75 80 85 90 95 100 105 110 115 120 125 130 135 140 145 150 154 158 163 167 171 176 181 185 189 190 195 200 205 209 213 218 222 226 230 235 240 245 250 255 260 265 270 274 279 283 287 0
d 292 195 283 0
d 293 291 195 283 0
d 294 291 195 283 0
d 295 1 2 6 7 12 13 18 23 24 29 30 35 40 45 50 55 60 65 70 75 80 85 90 95 100 105 110 115 120 125 130 135 140 145 150 154 158 163 167 171 176 181 185 189 190 195 200 205 209 213 218 222 226 230 235 240 245 250 255 260 265 270 274 279 283 287 291 0
d 297 213 283 0
d 298 296 213 283 0
d 299 296 213 283 0
d 300 1 2 6 7 12 13 18 23 24 29 30 35 40 45 50 55 60 65 70 75 80 85 90 95 100 105 110 115 120 125 130 135 140 145 150 154 158 163 167 171 176 181 185 189 190 195 200 205 209 213 218 222 226 230 235 240 245 250 255 260 265 270 274 279 283 287 291 296 0
d 302 270 283 0
d 303 301 270 283 0
d 304 301 270 283 0
d 305 1 2 6 7 12 13 18 23 24 29 30 35 40 45 50 55 60 65 70 75 80 85 90 95 100 105 110 115 120 125 130 135 140 145 150 154 158 163 167 171 176 181 185 189 190 195 200 205 209 213 218 222 226 230 235 240 245 250 255 260 265 270 274 279 283 287 291 296 301 0
d 307 213 171 0
d 308 306 213 171 0
d 309 306 213 171 0
d 310 1 2 6 7 12 13 18 23 24 29 30 35 40 45 50 55 60 65 70 75 80 85 90 95 100 105 110 115 120 125 130 135 140 145 150 154 158 163 167 171 176 181 185 189 190 195 200 205 209 213 218 222 226 230 235 240 245 250 255 260 265 270 274 279 283 287 291 296 301 306 0
d 312 311 230 0
d 313 311 230 0
d 314 1 2 6 7 12 13 18 23 24 29 30 35 40 45 50 55 60 65 70 75 80 85 90 95 100 105 110 115 120 125 130 135 140 145 150 154 158 163 167 171 176 181 185 189 190 195 200 205 209 213 218 222 226 230 235 240 245 250 255 260 265 270 274 279 283 287 291 296 301 306 311 0
d 316 315 154 0
d 317 315 154 0
d 318 1 2 6 7 12 13 18 23 24 29 30 35 40 45 50 55 60 65 70 75 80 85 90 95 100 105 110 115 120 125 130 135 140 145 150 154 158 163 167 171 176 181 185 189 190 195 200 205 209 213 218 222 226 230 235 240 245 250 255 260 265 270 274 279 283 287 291 296 301 306 311 315 0
d 320 319 255 0
d 321 319 255 0
d 322 1 2 6 7 12 13 18 23 24 29 30 35 40 45 50 55 60 65 70 75 80 85 90 95 100 105 110 115 120 125 130 135 140 145 150 154 158 163 167 171 176 181 185 189 190 195 200 205 209 213 218 222 226 230 235 240 245 250 255 260 265 270 274 279 283 287 291 296 301 306 311 315 319 0
d 325 2 324 0
d 326 323 2 324 0
d 327 323 2 324 0
d 328 1 2 6 7 12 13 18 23 24 29 30 35 40 45 50 55 60 65 70 75 80 85 90 95 100 105 110 115 120 125 130 135 140 145 150 154 158 163 167 171 176 181 185 189 190 195 200 205 209 213 218 222 226 230 235 240 245 250 255 260 265 270 274 279 283 287 291 296 301 306 311 315 319 323 324 0
d 330 329 260 0
d 331 329 260 0
d 332 1 2 6 7 12 13 18 23 24 29 30 35 40 45 50 55 60 65 70 75 80 85 90 95 100 105 110 115 120 125 130 135 140 145 150 154 158 163 167 171 176 181 185 189 190 195 200 205 209 213 218 222 226 230 235 240 245 250 255 260 265 270 274 279 283 287 291 296 301 306 311 315 319 323 324 329 0
d 334 333 265 0
d 335 333 265 0
d 336 1 2 6 7 12 13 18 23 24 29 30 35 40 45 50 55 60 65 70 75 80 85 90 95 100 105 110 115 120 125 130 135 140 145 150 154 158 163 167 171 176 181 185 189 190 195 200 205 209 213 218 222 226 230 235 240 245 250 255 260 265 270 274 279 283 287 291 296 301 306 311 315 319 323 324 329 333 0
d 339 2 338 0
d 340 337 2 338 0
d 341 337 2 338 0
d 342 1 2 6 7 12 13 18 23 24 29 30 35 40 45 50 55 60 65 70 75 80 85 90 95 100 105 110 115 120 125 130 135 140 145 150 154 158 163 167 171 176 181 185 189 190 195 200 205 209 213 218 222 226 230 235 240 245 250 255 260 265 270 274 279 283 287 291 296 301 306 311 315 319 323 324 329 333 337 338 0
d 344 343 274 0
d 345 343 274 0
d 346 1 2 6 7 12 13 18 23 24 29 30 35 40 45 50 55 60 65 70 75 80 85 90 95 100 105 110 115 120 125 130 135 140 145 150 154 158 163 167 171 176 181 185 189 190 195 200 205 209 213 218 222 226 230 235 240 245 250 255 260 265 270 274 279 283 287 291 296 301 306 311 315 319 323 324 329 333 337 338 343 0
d 348 158 283 0
d 349 347 158 283 0
d 350 347 158 283 0
d 351 1 2 6 7 12 13 18 23 24 29 30 35 40 45 50 55 60 65 70 75 80 85 90 95 100 105 110 115 120 125 130 135 140 145 150 154 158 163 167 171 176 181 185 189 190 195 200 205 209 213 218 222 226 230 235 240 245 250 255 260 265 270 274 279 283 287 291 296 301 306 311 315 319 323 324 329 333 337 338 343 347 0
d 355 185 354 0
d 357 185 354 7 13 226 24 0
d 358 463 218 222 2 185 354 7 13 226 24 0
d 359 181 189 205 209 457 463 218 222 2 185 354 7 13 226 24 0
d 361 185 360 0
d 362 185 360 235 0
d 364 185 363 0
d 365 185 363 240 0
d 366 185 360 235 363 240 0
d 368 185 367 0
d 369 185 367 245 0
d 371 185 370 0
d 373 185 370 7 13 24 30 0
d 374 185 367 245 370 7 13 24 30 0
d 375 185 360 235 363 240 367 245 370 7 13 24 30 0
d 376 181 189 205 209 457 463 218 222 2 185 354 7 13 226 24 360 235 363 240 367 245 370 30 0
d 378 185 377 0
d 379 185 377 255 0
d 381 185 380 0
d 382 185 380 260 0
d 383 185 377 255 380 260 0
d 385 185 384 0
d 386 185 384 0
d 387 185 384 265 0
d 389 185 388 0
d 390 185 388 274 0
d 391 185 384 265 388 274 0
d 392 185 377 255 380 260 384 265 388 274 0
d 395 185 394 0
d 396 185 394 291 0
d 397 493 279 287 2 185 394 291 0
d 399 185 398 0
d 400 185 398 296 0
d 402 185 401 0
d 403 185 401 301 0
d 404 185 398 296 401 301 0
d 405 493 279 287 2 185 394 291 398 296 401 301 0
d 406 185 377 255 380 260 384 265 388 274 493 279 287 2 394 291 398 296 401 301 0
d 407 181 189 205 209 457 463 218 222 2 185 354 7 13 226 24 360 235 363 240 367 245 370 30 377 255 380 260 384 265 388 274 493 279 287 394 291 398 296 401 301 0
d 409 2 408 0
d 410 2 408 176 0
d 412 2 411 0
d 413 2 411 200 0
d 414 2 408 176 411 200 0
d 416 2 415 0
d 417 2 415 306 0
d 419 2 418 0
d 420 2 418 7 13 226 24 0
d 421 2 415 306 418 7 13 226 24 0
d 422 2 408 176 411 200 415 306 418 7 13 226 24 0
d 424 2 423 0
d 425 2 423 235 0
d 427 2 423 235 515 311 7 315 0
d 429 2 428 0
d 430 2 428 245 0
d 432 2 431 0
d 433 2 431 7 13 24 30 0
d 434 2 428 245 431 7 13 24 30 0
d 435 2 423 235 515 311 7 315 428 245 431 13 24 30 0
d 436 2 408 176 411 200 415 306 418 7 13 226 24 423 235 515 311 315 428 245 431 30 0
d 439 319 323 329 2 524 333 337 343 529 0
d 441 2 535 347 0
d 443 2 442 0
d 444 2 442 291 0
d 445 2 535 347 442 291 0
d 447 2 446 0
d 448 2 446 296 0
d 450 2 449 0
d 451 2 449 301 0
d 452 2 446 296 449 301 0
d 453 2 535 347 442 291 446 296 449 301 0
d 454 319 323 329 2 524 333 337 343 529 535 347 442 291 446 296 449 301 0
d 455 2 408 176 411 200 415 306 418 7 13 226 24 423 235 515 311 315 428 245 431 30 319 323 329 524 333 337 343 529 535 347 442 291 446 296 449 301 0
d 456 181 189 205 209 457 463 218 222 2 185 354 7 13 226 24 360 235 363 240 367 245 370 30 377 255 380 260 384 265 388 274 493 279 287 394 291 398 296 401 301 408 176 411 200 415 306 418 423 515 311 315 428 431 319 323 329 524 333 337 343 529 535 347 442 446 449 0
d 458 1 457 0
d 459 1 457 40 0
d 460 1 190 0
d 461 1 190 50 0
d 462 1 457 40 190 50 0
d 464 1 463 0
d 465 1 463 60 0
d 466 1 354 0
d 467 1 354 70 0
d 468 1 463 60 354 70 0
d 469 1 457 40 190 50 463 60 354 70 0
d 470 1 360 0
d 471 1 360 80 0
d 472 1 363 0
d 473 1 363 85 0
d 474 1 360 80 363 85 0
d 475 1 367 0
d 476 1 367 90 0
d 477 1 370 0
d 478 1 370 95 0
d 479 1 367 90 370 95 0
d 480 1 360 80 363 85 367 90 370 95 0
d 481 1 457 40 190 50 463 60 354 70 360 80 363 85 367 90 370 95 0
d 482 1 377 0
d 483 1 377 105 0
d 484 1 380 0
d 485 1 380 110 0
d 486 1 377 105 380 110 0
d 487 1 384 0
d 488 1 384 115 0
d 489 1 388 0
d 490 1 388 120 0
d 491 1 384 115 388 120 0
d 492 1 377 105 380 110 384 115 388 120 0
d 494 1 493 0
d 495 1 493 130 0
d 496 1 394 0
d 497 1 394 135 0
d 498 1 493 130 394 135 0
d 499 1 398 0
d 500 1 398 140 0
d 501 1 401 0
d 502 1 401 145 0
d 503 1 398 140 401 145 0
d 504 1 493 130 394 135 398 140 401 145 0
d 505 1 377 105 380 110 384 115 388 120 493 130 394 135 398 140 401 145 0
d 506 1 457 40 190 50 463 60 354 70 360 80 363 85 367 90 370 95 377 105 380 110 384 115 388 120 493 130 394 135 398 140 401 145 0
d 507 2 408 40 0
d 508 2 411 50 0
d 509 2 408 40 411 50 0
d 510 2 415 60 0
d 511 2 418 70 0
d 512 2 415 60 418 70 0
d 513 2 408 40 411 50 415 60 418 70 0
d 514 2 423 80 0
d 516 2 515 0
d 517 2 515 85 0
d 518 2 423 80 515 85 0
d 519 2 428 90 0
d 520 2 431 95 0
d 521 2 428 90 431 95 0
d 522 2 423 80 515 85 428 90 431 95 0
d 523 2 408 40 411 50 415 60 418 70 423 80 515 85 428 90 431 95 0
d 525 2 524 0
d 526 2 524 105 0
d 527 2 324 110 0
d 528 2 524 105 324 110 0
d 530 2 529 0
d 531 2 529 115 0
d 532 2 338 120 0
d 533 2 529 115 338 120 0
d 534 2 524 105 324 110 529 115 338 120 0
d 536 2 535 0
d 537 2 535 130 0
d 538 2 442 135 0
d 539 2 535 130 442 135 0
d 540 2 446 140 0
d 541 2 449 145 0
d 542 2 446 140 449 145 0
d 543 2 535 130 442 135 446 140 449 145 0
d 544 2 524 105 324 110 529 115 338 120 535 130 442 135 446 140 449 145 0
d 545 2 408 40 411 50 415 60 418 70 423 80 515 85 428 90 431 95 524 105 324 110 529 115 338 120 535 130 442 135 446 140 449 145 0
d 546 1 457 40 190 50 463 60 354 70 360 80 363 85 367 90 370 95 377 105 380 110 384 115 388 120 493 130 394 135 398 140 401 145 2 408 411 415 418 423 515 428 431 524 324 529 338 535 442 446 449 0
d 547 181 189 205 209 457 463 218 222 2 185 354 7 13 226 24 360 235 363 240 367 245 370 30 377 255 380 260 384 265 388 274 493 279 287 394 291 398 296 401 301 408 176 411 200 415 306 418 423 515 311 315 428 431 319 323 329 524 333 337 343 529 535 347 442 446 449 1 40 190 50 60 70 80 85 90 95 105 110 115 120 130 135 140 145 324 338 0
d 548 1 2 6 7 12 13 18 23 24 29 30 35 40 45 50 55 60 65 70 75 80 85 90 95 100 105 110 115 120 125 130 135 140 145 150 154 158 163 167 171 176 181 185 189 190 195 200 205 209 213 218 222 226 230 235 240 245 250 255 260 265 270 274 279 283 287 291 296 301 306 311 315 319 323 324 329 333 337 338 343 347 457 463 354 360 363 367 370 377 380 384 388 493 394 398 401 408 411 415 418 423 515 428 431 524 529 535 442 446 449 0
3 2 0
-3 -2 0
4 -1 -3 0
4 1 3 0
-4 -1 3 0
-4 1 -3 0
5 4 0
-5 -4 0
8 7 0
-8 -7 0
9 -6 -8 0
9 6 8 0
-9 -6 8 0
-9 6 -8 0
10 9 0
-10 -9 0
11 -5 0
11 -10 0
-11 5 10 0
14 13 0
-14 -13 0
15 -12 -14 0
15 12 14 0
-15 -12 14 0
-15 12 -14 0
16 15 0
-16 -15 0
17 -11 0
17 -16 0
-17 11 16 0
-19 6 0
-19 12 0
19 -6 -12 0
20 -18 -19 0
20 18 19 0
-20 -18 19 0
-20 18 -19 0
21 20 0
-21 -20 0
22 -17 0
22 -21 0
-22 17 21 0
25 24 0
-25 -24 0
26 -23 -25 0
26 23 25 0
-26 -23 25 0
-26 23 -25 0
27 26 0
-27 -26 0
28 -22 0
28 -27 0
-28 22 27 0
31 30 0
-31 -30 0
32 -29 -31 0
32 29 31 0
-32 -29 31 0
-32 29 -31 0
33 32 0
-33 -32 0
34 -28 0
34 -33 0
-34 28 33 0
-36 23 0
-36 29 0
36 -23 -29 0
37 -35 -36 0
37 35 36 0
-37 -35 36 0
-37 35 -36 0
38 37 0
-38 -37 0
39 -34 0
39 -38 0
-39 34 38 0
-41 18 0
-41 35 0
41 -18 -35 0
42 -40 -41 0
42 40 41 0
-42 -40 41 0
-42 40 -41 0
43 42 0
-43 -42 0
44 -39 0
44 -43 0
-44 39 43 0
-46 7 0
-46 12 0
46 -7 -12 0
47 -45 -46 0
47 45 46 0
-47 -45 46 0
-47 45 -46 0
48 47 0
-48 -47 0
49 -44 0
49 -48 0
-49 44 48 0
-51 45 0
-51 35 0
51 -45 -35 0
52 -50 -51 0
52 50 51 0
-52 -50 51 0
-52 50 -51 0
53 52 0
-53 -52 0
54 -49 0
54 -53 0
-54 49 53 0
-56 6 0
-56 13 0
56 -6 -13 0
57 -55 -56 0
57 55 56 0
-57 -55 56 0
-57 55 -56 0
58 57 0
-58 -57 0
59 -54 0
59 -58 0
-59 54 58 0
-61 55 0
-61 35 0
61 -55 -35 0
62 -60 -61 0
62 60 61 0
-62 -60 61 0
-62 60 -61 0
63 62 0
-63 -62 0
64 -59 0
64 -63 0
-64 59 63 0
-66 7 0
-66 13 0
66 -7 -13 0
67 -65 -66 0
67 65 66 0
-67 -65 66 0
-67 65 -66 0
68 67 0
-68 -67 0
69 -64 0
69 -68 0
-69 64 68 0
-71 65 0
-71 35 0
71 -65 -35 0
72 -70 -71 0
72 70 71 0
-72 -70 71 0
-72 70 -71 0
73 72 0
-73 -72 0
74 -69 0
74 -73 0
-74 69 73 0
-76 24 0
-76 29 0
76 -24 -29 0
77 -75 -76 0
77 75 76 0
-77 -75 76 0
-77 75 -76 0
78 77 0
-78 -77 0
79 -74 0
79 -78 0
-79 74 78 0
-81 18 0
-81 75 0
81 -18 -75 0
82 -80 -81 0
82 80 81 0
-82 -80 81 0
-82 80 -81 0
83 82 0
-83 -82 0
84 -79 0
84 -83 0
-84 79 83 0
-86 45 0
-86 75 0
86 -45 -75 0
87 -85 -86 0
87 85 86 0
-87 -85 86 0
-87 85 -86 0
88 87 0
-88 -87 0
89 -84 0
89 -88 0
-89 84 88 0
-91 55 0
-91 75 0
91 -55 -75 0
92 -90 -91 0
92 90 91 0
-92 -90 91 0
-92 90 -91 0
93 92 0
-93 -92 0
94 -89 0
94 -93 0
-94 89 93 0
-96 65 0
-96 75 0
96 -65 -75 0
97 -95 -96 0
97 95 96 0
-97 -95 96 0
-97 95 -96 0
98 97 0
-98 -97 0
99 -94 0
99 -98 0
-99 94 98 0
-101 23 0
-101 30 0
101 -23 -30 0
102 -100 -101 0
102 100 101 0
-102 -100 101 0
-102 100 -101 0
103 102 0
-103 -102 0
104 -99 0
104 -103 0
-104 99 103 0
-106 18 0
-106 100 0
106 -18 -100 0
107 -105 -106 0
107 105 106 0
-107 -105 106 0
-107 105 -106 0
108 107 0
-108 -107 0
109 -104 0
109 -108 0
-109 104 108 0
-111 45 0
-111 100 0
111 -45 -100 0
112 -110 -111 0
112 110 111 0
-112 -110 111 0
-112 110 -111 0
113 112 0
-113 -112 0
114 -109 0
114 -113 0
-114 109 113 0
-116 55 0
-116 100 0
116 -55 -100 0
117 -115 -116 0
117 115 116 0
-117 -115 116 0
-117 115 -116 0
118 117 0
-118 -117 0
119 -114 0
119 -118 0
-119 114 118 0
-121 65 0
-121 100 0
121 -65 -100 0
122 -120 -121 0
122 120 121 0
-122 -120 121 0
-122 120 -121 0
123 122 0
-123 -122 0
124 -119 0
124 -123 0
-124 119 123 0
-126 24 0
-126 30 0
126 -24 -30 0
127 -125 -126 0
127 125 126 0
-127 -125 126 0
-127 125 -126 0
128 127 0
-128 -127 0
129 -124 0
129 -128 0
-129 124 128 0
-131 18 0
-131 125 0
131 -18 -125 0
132 -130 -131 0
132 130 131 0
-132 -130 131 0
-132 130 -131 0
133 132 0
-133 -132 0
134 -129 0
134 -133 0
-134 129 133 0
-136 45 0
-136 125 0
136 -45 -125 0
137 -135 -136 0
137 135 136 0
-137 -135 136 0
-137 135 -136 0
138 137 0
-138 -137 0
139 -134 0
139 -138 0
-139 134 138 0
-141 55 0
-141 125 0
141 -55 -125 0
142 -140 -141 0
142 140 141 0
-142 -140 141 0
-142 140 -141 0
143 142 0
-143 -142 0
144 -139 0
144 -143 0
-144 139 143 0
-146 65 0
-146 125 0
146 -65 -125 0
147 -145 -146 0
147 145 146 0
-147 -145 146 0
-147 145 -146 0
148 147 0
-148 -147 0
149 -144 0
149 -148 0
-149 144 148 0
151 -150 -8 0
151 150 8 0
-151 -150 8 0
-151 150 -8 0
152 151 0
-152 -151 0
153 -149 0
153 -152 0
-153 149 152 0
155 -154 -14 0
155 154 14 0
-155 -154 14 0
-155 154 -14 0
156 155 0
-156 -155 0
157 -153 0
157 -156 0
-157 153 156 0
-159 150 0
-159 154 0
159 -150 -154 0
160 -158 -159 0
160 158 159 0
-160 -158 159 0
-160 158 -159 0
161 160 0
-161 -160 0
162 -157 0
162 -161 0
-162 157 161 0
164 -163 -25 0
164 163 25 0
-164 -163 25 0
-164 163 -25 0
165 164 0
-165 -164 0
166 -162 0
166 -165 0
-166 162 165 0
168 -167 -31 0
168 167 31 0
-168 -167 31 0
-168 167 -31 0
169 168 0
-169 -168 0
170 -166 0
170 -169 0
-170 166 169 0
-172 163 0
-172 167 0
172 -163 -167 0
173 -171 -172 0
173 171 172 0
-173 -171 172 0
-173 171 -172 0
174 173 0
-174 -173 0
175 -170 0
175 -174 0
-175 170 174 0
-177 158 0
-177 171 0
177 -158 -171 0
178 -176 -177 0
178 176 177 0
-178 -176 177 0
-178 176 -177 0
179 178 0
-179 -178 0
180 -175 0
180 -179 0
-180 175 179 0
182 -181 -176 0
182 181 176 0
-182 -181 176 0
-182 181 -176 0
183 182 0
-183 -182 0
184 -180 0
184 -183 0
-184 180 183 0
186 -185 -3 0
186 185 3 0
-186 -185 3 0
-186 185 -3 0
187 186 0
-187 -186 0
188 -184 0
188 -187 0
-188 184 187 0
-191 185 0
-191 190 0
191 -185 -190 0
192 -189 -191 0
192 189 191 0
-192 -189 191 0
-192 189 -191 0
193 192 0
-193 -192 0
194 -188 0
194 -193 0
-194 188 193 0
-196 7 0
-196 154 0
196 -7 -154 0
197 -195 -196 0
197 195 196 0
-197 -195 196 0
-197 195 -196 0
198 197 0
-198 -197 0
199 -194 0
199 -198 0
-199 194 198 0
-201 195 0
-201 171 0
201 -195 -171 0
202 -200 -201 0
202 200 201 0
-202 -200 201 0
-202 200 -201 0
203 202 0
-203 -202 0
204 -199 0
204 -203 0
-204 199 203 0
206 -205 -200 0
206 205 200 0
-206 -205 200 0
-206 205 -200 0
207 206 0
-207 -206 0
208 -204 0
208 -207 0
-208 204 207 0
210 -209 -185 0
210 209 185 0
-210 -209 185 0
-210 209 -185 0
211 210 0
-211 -210 0
212 -208 0
212 -211 0
-212 208 211 0
-214 150 0
-214 13 0
214 -150 -13 0
215 -213 -214 0
215 213 214 0
-215 -213 214 0
-215 213 -214 0
216 215 0
-216 -215 0
217 -212 0
217 -216 0
-217 212 216 0
219 -218 -213 0
219 218 213 0
-219 -218 213 0
-219 218 -213 0
220 219 0
-220 -219 0
221 -217 0
221 -220 0
-221 217 220 0
223 -222 -171 0
223 222 171 0
-223 -222 171 0
-223 222 -171 0
224 223 0
-224 -223 0
225 -221 0
225 -224 0
-225 221 224 0
227 -226 -167 0
227 226 167 0
-227 -226 167 0
-227 226 -167 0
228 227 0
-228 -227 0
229 -225 0
229 -228 0
-229 225 228 0
-231 24 0
-231 167 0
231 -24 -167 0
232 -230 -231 0
232 230 231 0
-232 -230 231 0
-232 230 -231 0
233 232 0
-233 -232 0
234 -229 0
234 -233 0
-234 229 233 0
-236 158 0
-236 230 0
236 -158 -230 0
237 -235 -236 0
237 235 236 0
-237 -235 236 0
-237 235 -236 0
238 237 0
-238 -237 0
239 -234 0
239 -238 0
-239 234 238 0
-241 195 0
-241 230 0
241 -195 -230 0
242 -240 -241 0
242 240 241 0
-242 -240 241 0
-242 240 -241 0
243 242 0
-243 -242 0
244 -239 0
244 -243 0
-244 239 243 0
-246 213 0
-246 230 0
246 -213 -230 0
247 -245 -246 0
247 245 246 0
-247 -245 246 0
-247 245 -246 0
248 247 0
-248 -247 0
249 -244 0
249 -248 0
-249 244 248 0
-251 163 0
-251 30 0
251 -163 -30 0
252 -250 -251 0
252 250 251 0
-252 -250 251 0
-252 250 -251 0
253 252 0
-253 -252 0
254 -249 0
254 -253 0
-254 249 253 0
-256 158 0
-256 250 0
256 -158 -250 0
257 -255 -256 0
257 255 256 0
-257 -255 256 0
-257 255 -256 0
258 257 0
-258 -257 0
259 -254 0
259 -258 0
-259 254 258 0
-261 195 0
-261 250 0
261 -195 -250 0
262 -260 -261 0
262 260 261 0
-262 -260 261 0
-262 260 -261 0
263 262 0
-263 -262 0
264 -259 0
264 -263 0
-264 259 263 0
-266 213 0
-266 250 0
266 -213 -250 0
267 -265 -266 0
267 265 266 0
-267 -265 266 0
-267 265 -266 0
268 267 0
-268 -267 0
269 -264 0
269 -268 0
-269 264 268 0
271 -270 -66 0
271 270 66 0
-271 -270 66 0
-271 270 -66 0
272 271 0
-272 -271 0
273 -269 0
273 -272 0
-273 269 272 0
-275 270 0
-275 250 0
275 -270 -250 0
276 -274 -275 0
276 274 275 0
-276 -274 275 0
-276 274 -275 0
277 276 0
-277 -276 0
278 -273 0
278 -277 0
-278 273 277 0
280 -279 -158 0
280 279 158 0
-280 -279 158 0
-280 279 -158 0
281 280 0
-281 -280 0
282 -278 0
282 -281 0
-282 278 281 0
284 -283 -126 0
284 283 126 0
-284 -283 126 0
-284 283 -126 0
285 284 0
-285 -284 0
286 -282 0
286 -285 0
-286 282 285 0
288 -287 -283 0
288 287 283 0
-288 -287 283 0
-288 287 -283 0
289 288 0
-289 -288 0
290 -286 0
290 -289 0
-290 286 289 0
-292 195 0
-292 283 0
292 -195 -283 0
293 -291 -292 0
293 291 292 0
-293 -291 292 0
-293 291 -292 0
294 293 0
-294 -293 0
295 -290 0
295 -294 0
-295 290 294 0
-297 213 0
-297 283 0
297 -213 -283 0
298 -296 -297 0
298 296 297 0
-298 -296 297 0
-298 296 -297 0
299 298 0
-299 -298 0
300 -295 0
300 -299 0
-300 295 299 0
-302 270 0
-302 283 0
302 -270 -283 0
303 -301 -302 0
303 301 302 0
-303 -301 302 0
-303 301 -302 0
304 303 0
-304 -303 0
305 -300 0
305 -304 0
-305 300 304 0
-307 213 0
-307 171 0
307 -213 -171 0
308 -306 -307 0
308 306 307 0
-308 -306 307 0
-308 306 -307 0
309 308 0
-309 -308 0
310 -305 0
310 -309 0
-310 305 309 0
312 -311 -230 0
312 311 230 0
-312 -311 230 0
-312 311 -230 0
313 312 0
-313 -312 0
314 -310 0
314 -313 0
-314 310 313 0
316 -315 -154 0
316 315 154 0
-316 -315 154 0
-316 315 -154 0
317 316 0
-317 -316 0
318 -314 0
318 -317 0
-318 314 317 0
320 -319 -255 0
320 319 255 0
-320 -319 255 0
-320 319 -255 0
321 320 0
-321 -320 0
322 -318 0
322 -321 0
-322 318 321 0
-325 2 0
-325 324 0
325 -2 -324 0
326 -323 -325 0
326 323 325 0
-326 -323 325 0
-326 323 -325 0
327 326 0
-327 -326 0
328 -322 0
328 -327 0
-328 322 327 0
330 -329 -260 0
330 329 260 0
-330 -329 260 0
-330 329 -260 0
331 330 0
-331 -330 0
332 -328 0
332 -331 0
-332 328 331 0
334 -333 -265 0
334 333 265 0
-334 -333 265 0
-334 333 -265 0
335 334 0
-335 -334 0
336 -332 0
336 -335 0
-336 332 335 0
-339 2 0
-339 338 0
339 -2 -338 0
340 -337 -339 0
340 337 339 0
-340 -337 339 0
-340 337 -339 0
341 340 0
-341 -340 0
342 -336 0
342 -341 0
-342 336 341 0
344 -343 -274 0
344 343 274 0
-344 -343 274 0
-344 343 -274 0
345 344 0
-345 -344 0
346 -342 0
346 -345 0
-346 342 345 0
-348 158 0
-348 283 0
348 -158 -283 0
349 -347 -348 0
349 347 348 0
-349 -347 348 0
-349 347 -348 0
350 349 0
-350 -349 0
351 -346 0
351 -350 0
-351 346 350 0
-355 185 0
-355 354 0
355 -185 -354 0
-357 355 0
-357 356 0
357 -355 -356 0
358 -353 0
358 -357 0
-358 353 357 0
359 -352 0
359 -358 0
-359 352 358 0
-361 185 0
-361 360 0
361 -185 -360 0
-362 361 0
-362 235 0
362 -361 -235 0
-364 185 0
-364 363 0
364 -185 -363 0
-365 364 0
-365 240 0
365 -364 -240 0
366 -362 0
366 -365 0
-366 362 365 0
-368 185 0
-368 367 0
368 -185 -367 0
-369 368 0
-369 245 0
369 -368 -245 0
-371 185 0
-371 370 0
371 -185 -370 0
-373 371 0
-373 372 0
373 -371 -372 0
374 -369 0
374 -373 0
-374 369 373 0
375 -366 0
375 -374 0
-375 366 374 0
376 -359 0
376 -375 0
-376 359 375 0
-378 185 0
-378 377 0
378 -185 -377 0
-379 378 0
-379 255 0
379 -378 -255 0
-381 185 0
-381 380 0
381 -185 -380 0
-382 381 0
-382 260 0
382 -381 -260 0
383 -379 0
383 -382 0
-383 379 382 0
385 -185 0
385 -384 0
-385 185 384 0
386 385 0
-386 -385 0
-387 386 0
-387 265 0
387 -386 -265 0
-389 185 0
-389 388 0
389 -185 -388 0
-390 389 0
-390 274 0
390 -389 -274 0
391 -387 0
391 -390 0
-391 387 390 0
392 -383 0
392 -391 0
-392 383 391 0
-395 185 0
-395 394 0
395 -185 -394 0
-396 395 0
-396 291 0
396 -395 -291 0
397 -393 0
397 -396 0
-397 393 396 0
-399 185 0
-399 398 0
399 -185 -398 0
-400 399 0
-400 296 0
400 -399 -296 0
-402 185 0
-402 401 0
402 -185 -401 0
-403 402 0
-403 301 0
403 -402 -301 0
404 -400 0
404 -403 0
-404 400 403 0
405 -397 0
405 -404 0
-405 397 404 0
406 -392 0
406 -405 0
-406 392 405 0
407 -376 0
407 -406 0
-407 376 406 0
-409 2 0
-409 408 0
409 -2 -408 0
-410 409 0
-410 176 0
410 -409 -176 0
-412 2 0
-412 411 0
412 -2 -411 0
-413 412 0
-413 200 0
413 -412 -200 0
414 -410 0
414 -413 0
-414 410 413 0
-416 2 0
-416 415 0
416 -2 -415 0
-417 416 0
-417 306 0
417 -416 -306 0
-419 2 0
-419 418 0
419 -2 -418 0
-420 419 0
-420 356 0
420 -419 -356 0
421 -417 0
421 -420 0
-421 417 420 0
422 -414 0
422 -421 0
-422 414 421 0
-424 2 0
-424 423 0
424 -2 -423 0
-425 424 0
-425 235 0
425 -424 -235 0
427 -425 0
427 -426 0
-427 425 426 0
-429 2 0
-429 428 0
429 -2 -428 0
-430 429 0
-430 245 0
430 -429 -245 0
-432 2 0
-432 431 0
432 -2 -431 0
-433 432 0
-433 372 0
433 -432 -372 0
434 -430 0
434 -433 0
-434 430 433 0
435 -427 0
435 -434 0
-435 427 434 0
436 -422 0
436 -435 0
-436 422 435 0
439 -437 0
439 -438 0
-439 437 438 0
-441 440 0
-441 347 0
441 -440 -347 0
-443 2 0
-443 442 0
443 -2 -442 0
-444 443 0
-444 291 0
444 -443 -291 0
445 -441 0
445 -444 0
-445 441 444 0
-447 2 0
-447 446 0
447 -2 -446 0
-448 447 0
-448 296 0
448 -447 -296 0
-450 2 0
-450 449 0
450 -2 -449 0
-451 450 0
-451 301 0
451 -450 -301 0
452 -448 0
452 -451 0
-452 448 451 0
453 -445 0
453 -452 0
-453 445 452 0
454 -439 0
454 -453 0
-454 439 453 0
455 -436 0
455 -454 0
-455 436 454 0
456 -407 0
456 -455 0
-456 407 455 0
-458 1 0
-458 457 0
458 -1 -457 0
-459 458 0
-459 40 0
459 -458 -40 0
-460 1 0
-460 190 0
460 -1 -190 0
-461 460 0
-461 50 0
461 -460 -50 0
462 -459 0
462 -461 0
-462 459 461 0
-464 1 0
-464 463 0
464 -1 -463 0
-465 464 0
-465 60 0
465 -464 -60 0
-466 1 0
-466 354 0
466 -1 -354 0
-467 466 0
-467 70 0
467 -466 -70 0
468 -465 0
468 -467 0
-468 465 467 0
469 -462 0
469 -468 0
-469 462 468 0
-470 1 0
-470 360 0
470 -1 -360 0
-471 470 0
-471 80 0
471 -470 -80 0
-472 1 0
-472 363 0
472 -1 -363 0
-473 472 0
-473 85 0
473 -472 -85 0
474 -471 0
474 -473 0
-474 471 473 0
-475 1 0
-475 367 0
475 -1 -367 0
-476 475 0
-476 90 0
476 -475 -90 0
-477 1 0
-477 370 0
477 -1 -370 0
-478 477 0
-478 95 0
478 -477 -95 0
479 -476 0
479 -478 0
-479 476 478 0
480 -474 0
480 -479 0
-480 474 479 0
481 -469 0
481 -480 0
-481 469 480 0
-482 1 0
-482 377 0
482 -1 -377 0
-483 482 0
-483 105 0
483 -482 -105 0
-484 1 0
-484 380 0
484 -1 -380 0
-485 484 0
-485 110 0
485 -484 -110 0
486 -483 0
486 -485 0
-486 483 485 0
-487 1 0
-487 384 0
487 -1 -384 0
-488 487 0
-488 115 0
488 -487 -115 0
-489 1 0
-489 388 0
489 -1 -388 0
-490 489 0
-490 120 0
490 -489 -120 0
491 -488 0
491 -490 0
-491 488 490 0
492 -486 0
492 -491 0
-492 486 491 0
-494 1 0
-494 493 0
494 -1 -493 0
-495 494 0
-495 130 0
495 -494 -130 0
-496 1 0
-496 394 0
496 -1 -394 0
-497 496 0
-497 135 0
497 -496 -135 0
498 -495 0
498 -497 0
-498 495 497 0
-499 1 0
-499 398 0
499 -1 -398 0
-500 499 0
-500 140 0
500 -499 -140 0
-501 1 0
-501 401 0
501 -1 -401 0
-502 501 0
-502 145 0
502 -501 -145 0
503 -500 0
503 -502 0
-503 500 502 0
504 -498 0
504 -503 0
-504 498 503 0
505 -492 0
505 -504 0
-505 492 504 0
506 -481 0
506 -505 0
-506 481 505 0
-507 409 0
-507 40 0
507 -409 -40 0
-508 412 0
-508 50 0
508 -412 -50 0
509 -507 0
509 -508 0
-509 507 508 0
-510 416 0
-510 60 0
510 -416 -60 0
-511 419 0
-511 70 0
511 -419 -70 0
512 -510 0
512 -511 0
-512 510 511 0
513 -509 0
513 -512 0
-513 509 512 0
-514 424 0
-514 80 0
514 -424 -80 0
-516 2 0
-516 515 0
516 -2 -515 0
-517 516 0
-517 85 0
517 -516 -85 0
518 -514 0
518 -517 0
-518 514 517 0
-519 429 0
-519 90 0
519 -429 -90 0
-520 432 0
-520 95 0
520 -432 -95 0
521 -519 0
521 -520 0
-521 519 520 0
522 -518 0
522 -521 0
-522 518 521 0
523 -513 0
523 -522 0
-523 513 522 0
-525 2 0
-525 524 0
525 -2 -524 0
-526 525 0
-526 105 0
526 -525 -105 0
-527 325 0
-527 110 0
527 -325 -110 0
528 -526 0
528 -527 0
-528 526 527 0
-530 2 0
-530 529 0
530 -2 -529 0
-531 530 0
-531 115 0
531 -530 -115 0
-532 339 0
-532 120 0
532 -339 -120 0
533 -531 0
533 -532 0
-533 531 532 0
534 -528 0
534 -533 0
-534 528 533 0
-536 2 0
-536 535 0
536 -2 -535 0
-537 536 0
-537 130 0
537 -536 -130 0
-538 443 0
-538 135 0
538 -443 -135 0
539 -537 0
539 -538 0
-539 537 538 0
-540 447 0
-540 140 0
540 -447 -140 0
-541 450 0
-541 145 0
541 -450 -145 0
542 -540 0
542 -541 0
-542 540 541 0
543 -539 0
543 -542 0
-543 539 542 0
544 -534 0
544 -543 0
-544 534 543 0
545 -523 0
545 -544 0
-545 523 544 0
546 -506 0
546 -545 0
-546 506 545 0
547 -456 -546 0
547 456 546 0
-547 -456 546 0
-547 456 -546 0
548 -351 0
548 -547 0
-548 351 547 0
548 0
